; faust :: corpus-study/repo_src/faust/faust/tables/recovery.py :: wait_for at _slurp_changelogs:718 :: naive encoding (verdict: unsat)
; Generated by snf-pipeline (encoder.py) -- run with any
; SMT-LIB2-compliant solver, e.g. `z3 faust__corpus-study_repo_src_faust_faust_tables_recovery.py__waitfor__slurp_changelogs_L718__naive.smt2`
; benchmark generated from python API
(set-info :status unknown)
(declare-fun timeout_fires () Bool)
(declare-fun cleanup_ran () Bool)
(assert
 (= timeout_fires false))
(assert
 (let (($x27 (not cleanup_ran)))
(and timeout_fires $x27)))
(check-sat)
